15 90
13 13
6 10
1 12
4 10
12 13
4 13
8 10
10 13
4 10
6 10
3 10
5 10
8 12
7 13
9 10
9 13
13 12
11 13
2 13
7 11
8 11
8 11
9 10
2 11
6 11
10 11
14 13
9 10
10 13
5 11
4 12
1 10
4 11
6 12
1 10
3 12
4 10
9 11
2 13
4 12
14 12
4 11
4 10
8 13
1 11
2 11
10 13
10 10
1 12
11 12
5 13
8 12
4 13
12 13
3 13
8 12
13 11
3 12
1 12
1 13
5 12
6 13
6 13
7 12
9 12
5 13
2 10
5 11
10 12
11 13
11 12
9 11
2 12
2 11
8 10
10 12
10 12
4 13
7 10
8 13
12 12
3 13
12 10
1 10
4 12
6 10
13 12
10 13
11 12
5 12
